Route #1: 26 69 19 42 43 56 60 20 75 61 63 40 10 34 29 49 5 15 51 37 62 36 14
Route #2: 44 68 59 9 58 13
Route #3: 28 52 33 46 66 38 8 74 16 47 32 23 77
Route #4: 30 71 72 76 48 21 4 55
Route #5: 78 17 54 24 11 65 45 12 67 7
Route #6: 1 57 39 25 18 53 70 2 22 73 35 3 6 31 64 50
Route #7: 27 41
Route #8: 
Route #9: 
Route #10: 
cost 1758.213420268959
